# Solution for model GasLib-40
# Objective value = 2.2948010617399415e+01
loadshed[innode_1] 0
loadshed[innode_2] 0
loadshed[innode_3] 0
loadshed[innode_4] 0
loadshed[innode_5] 0
loadshed[innode_6] 0
loadshed[innode_7] 0
loadshed[innode_8] 0
loadshed[source_1] -2.0908464757208689e-01
loadshed[source_2] 1.5325543326015112e-01
loadshed[source_3] 2.0098684791195920e-01
loadshed[sink_1] 0
loadshed[sink_2] 0
loadshed[sink_3] 0
loadshed[sink_4] 0
loadshed[sink_5] 0
loadshed[sink_6] 0
loadshed[sink_7] 0
loadshed[sink_8] 0
loadshed[sink_9] 0
loadshed[sink_10] 0
loadshed[sink_11] 0
loadshed[sink_12] 1
loadshed[sink_13] 0
loadshed[sink_14] 0
loadshed[sink_15] 0
loadshed[sink_16] 0
loadshed[sink_17] 0
loadshed[sink_18] 0
loadshed[sink_19] 0
loadshed[sink_20] 0
loadshed[sink_21] 4.0319045813397686e-01
loadshed[sink_22] 0
loadshed[sink_23] 0
loadshed[sink_24] 0
loadshed[sink_25] 0
loadshed[sink_26] 0
loadshed[sink_27] 0
loadshed[sink_28] 0
loadshed[sink_29] 0
flow[source_1,sink_3] 1.9114452779151776e+02
flow[innode_1,sink_16] 1.6354166666666970e+01
flow[innode_6,sink_13] -1.1837044495029131e+01
flow[sink_13,sink_14] -2.8191211161695797e+01
flow[sink_14,sink_10] -4.4545377828362469e+01
flow[sink_25,sink_26] 1.5589181506221087e+02
flow[sink_26,sink_9] 8.1770833333333655e+01
flow[sink_9,sink_18] 6.5416666666666671e+01
flow[sink_26,sink_4] 5.7766815062210554e+01
flow[sink_4,sink_20] -3.3764340987056585e+01
flow[sink_18,sink_6] 4.9062500000000313e+01
flow[sink_25,innode_8] -1.5843619445818138e+02
flow[sink_6,sink_7] 0
flow[sink_6,sink_22] 3.2708333333333641e+01
flow[sink_7,sink_24] 2.6114489382600592e+01
flow[sink_22,sink_1] 1.6354166666666970e+01
flow[sink_24,sink_21] 9.76032271593392
flow[sink_21,sink_12] 0
flow[sink_7,sink_5] -4.2468656049267253e+01
flow[sink_5,sink_17] -5.8822822715933924e+01
flow[sink_17,sink_4] -75.1769893826006
flow[sink_17,sink_8] 0
flow[sink_3,sink_23] 16.3541666666697
flow[sink_8,sink_20] -1.6354166666668334e+01
flow[sink_25,sink_20] 6.6472674320391548e+01
flow[sink_25,sink_15] -68.4454170960589
flow[sink_15,sink_29] 0
flow[sink_29,sink_28] 1.6354166666667879e+01
flow[sink_29,sink_2] 1.0115375042939225e+02
flow[sink_2,sink_15] 8.4799583762725575e+01
flow[sink_29,innode_7] -1.3386208376272680e+02
flow[innode_4,sink_19] 49.2610524010143
flow[sink_19,innode_3] 4.5680249261604857e+01
flow[innode_4,innode_5] 7.7055158760681877e+01
flow[sink_27,innode_5] -7.7055158760681877e+01
flow[sink_27,sink_19] 6.0700992094015206e+01
flow[sink_10,sink_11] 3.2708333333333641e+01
flow[sink_10,innode_2] -4.7927628566757832e+01
flow[sink_10,innode_3] -4.5680249261604857e+01
flow[innode_6,sink_25] 1.1837044495029131e+01
flow[sink_11,innode_1] 1.6354166666666970e+01
flow[sink_19,innode_2] 4.7927628566757832e+01
flow[source_3,innode_4] 1.2631621116169617e+02
flow[source_2,innode_7] 1.3386208376272680e+02
flow[sink_3,innode_8] 1.5843619445818138e+02
pressure[innode_1] 7.6332684824412127e+01
pressure[innode_2] 79.017559249358
pressure[innode_3] 7.8916405510095231e+01
pressure[innode_4] 81.01325
pressure[innode_5] 80.9602473986733
pressure[innode_6] 7.4261746087066925e+01
pressure[innode_7] 81.01325
pressure[innode_8] 8.0374326863449255e+01
pressure[source_1] 81.01325
pressure[source_2] 81.01325
pressure[source_3] 81.01325
pressure[sink_1] 5.2610019268864392e+01
pressure[sink_2] 7.4870625006149766e+01
pressure[sink_3] 8.0374326863449255e+01
pressure[sink_4] 5.5937754728220305e+01
pressure[sink_5] 4.8682862973714954e+01
pressure[sink_6] 5.4711096879251762e+01
pressure[sink_7] 3.1020481028205573e+01
pressure[sink_8] 5.7275208355059682e+01
pressure[sink_9] 5.8388181682710048e+01
pressure[sink_10] 7.6484386132015672e+01
pressure[sink_11] 7.6332684824412127e+01
pressure[sink_12] 1.0132499999999940e+00
pressure[sink_13] 7.4327001735214125e+01
pressure[sink_14] 74.3774523089482
pressure[sink_15] 74.5937730546917
pressure[sink_16] 7.5311034989594447e+01
pressure[sink_17] 5.3064738082477227e+01
pressure[sink_18] 5.6021211707511391e+01
pressure[sink_19] 79.017559249358
pressure[sink_20] 5.8414863778647970e+01
pressure[sink_21] 1.0132499999999940e+00
pressure[sink_22] 53.6737884112194
pressure[sink_23] 8.0209608851789469e+01
pressure[sink_24] 1.1213365056576379e+00
pressure[sink_25] 7.4261746087066925e+01
pressure[sink_26] 63.2823771024214
pressure[sink_27] 8.0320831963583473e+01
pressure[sink_28] 7.7137681389840537e+01
pressure[sink_29] 7.7432963663457713e+01
interdiction[source_1,sink_3] 0
interdiction[innode_1,sink_16] 0
interdiction[innode_6,sink_13] 0
interdiction[sink_13,sink_14] 0
interdiction[sink_14,sink_10] 0
interdiction[sink_25,sink_26] 0
interdiction[sink_26,sink_9] 0
interdiction[sink_9,sink_18] 0
interdiction[sink_26,sink_4] 0
interdiction[sink_4,sink_20] 0
interdiction[sink_18,sink_6] 0
interdiction[sink_25,innode_8] 0
interdiction[sink_6,sink_7] 1
interdiction[sink_6,sink_22] 0
interdiction[sink_7,sink_24] 0
interdiction[sink_22,sink_1] 0
interdiction[sink_24,sink_21] 0
interdiction[sink_21,sink_12] 0
interdiction[sink_7,sink_5] 0
interdiction[sink_5,sink_17] 0
interdiction[sink_17,sink_4] 0
interdiction[sink_17,sink_8] 1
interdiction[sink_3,sink_23] 0
interdiction[sink_8,sink_20] 0
interdiction[sink_25,sink_20] 0
interdiction[sink_25,sink_15] 0
interdiction[sink_15,sink_29] 1
interdiction[sink_29,sink_28] 0
interdiction[sink_29,sink_2] 0
interdiction[sink_2,sink_15] 0
interdiction[sink_29,innode_7] 0
interdiction[innode_4,sink_19] 0
interdiction[sink_19,innode_3] 0
interdiction[innode_4,innode_5] 0
interdiction[sink_27,innode_5] 0
interdiction[sink_27,sink_19] 0
interdiction[sink_10,sink_11] 0
interdiction[sink_10,innode_2] 0
interdiction[sink_10,innode_3] 0
interdiction[innode_6,sink_25] 0
interdiction[sink_11,innode_1] 0
interdiction[sink_19,innode_2] 0
interdiction[source_3,innode_4] 0
interdiction[source_2,innode_7] 0
interdiction[sink_3,innode_8] 0
WCcheckFlow[source_1,sink_3] 39
WCcheckFlow[innode_1,sink_16] 1
WCcheckFlow[innode_6,sink_13] 13
WCcheckFlow[sink_13,sink_14] 12
WCcheckFlow[sink_14,sink_10] 11
WCcheckFlow[sink_25,sink_26] 15
WCcheckFlow[sink_26,sink_9] 5
WCcheckFlow[sink_9,sink_18] 4
WCcheckFlow[sink_26,sink_4] 9
WCcheckFlow[sink_4,sink_20] 2
WCcheckFlow[sink_18,sink_6] 3
WCcheckFlow[sink_25,innode_8] -36
WCcheckFlow[sink_6,sink_7] 0
WCcheckFlow[sink_6,sink_22] 2
WCcheckFlow[sink_7,sink_24] 3
WCcheckFlow[sink_22,sink_1] 1
WCcheckFlow[sink_24,sink_21] 2
WCcheckFlow[sink_21,sink_12] 1
WCcheckFlow[sink_7,sink_5] -4
WCcheckFlow[sink_5,sink_17] -5
WCcheckFlow[sink_17,sink_4] -6
WCcheckFlow[sink_17,sink_8] 0
WCcheckFlow[sink_3,sink_23] 1
WCcheckFlow[sink_8,sink_20] -1
WCcheckFlow[sink_25,sink_20] 0
WCcheckFlow[sink_25,sink_15] 6
WCcheckFlow[sink_15,sink_29] 0
WCcheckFlow[sink_29,sink_28] 1
WCcheckFlow[sink_29,sink_2] -4
WCcheckFlow[sink_2,sink_15] -5
WCcheckFlow[sink_29,innode_7] 2
WCcheckFlow[innode_4,sink_19] -4
WCcheckFlow[sink_19,innode_3] -5
WCcheckFlow[innode_4,innode_5] 2
WCcheckFlow[sink_27,innode_5] -1
WCcheckFlow[sink_27,sink_19] 0
WCcheckFlow[sink_10,sink_11] 3
WCcheckFlow[sink_10,innode_2] 1
WCcheckFlow[sink_10,innode_3] 6
WCcheckFlow[innode_6,sink_25] -14
WCcheckFlow[sink_11,innode_1] 2
WCcheckFlow[sink_19,innode_2] 0
WCcheckFlow[source_3,innode_4] -1
WCcheckFlow[source_2,innode_7] -1
WCcheckFlow[sink_3,innode_8] 37
